c read Graph
c width = 107
c time = 418 ms
c width = 7
c time = 577 ms
c width = 6
c time = 4009 ms
c width = 6
c time = 4314 ms
s td 114 7 120
b 1 1 2 21
b 2 2 3 21 22
b 3 18 19 39 40
b 4 3 21 22 41
b 5 18 39 40 60
b 6 61 81 82 102
b 7 80 99 100 119
b 8 61 82 102 103
b 9 80 99 118 119
b 10 3 4 5 24
b 11 3 5 24 43 61 62
b 12 3 24 42 43 61 62
b 13 3 23 24 42 43 61
b 14 3 23 41 42 61
b 15 3 22 23 41 42
b 16 5 6 24 25 43 61 62
b 17 6 24 25 43 44 61 62
b 18 6 25 43 44 61 62 63
b 19 6 25 44 61 62 63 82
b 20 6 25 44 61 63 82 103
b 21 6 25 44 63 82 83 103
b 22 6 25 44 63 64 83 103
b 23 6 25 44 45 64 83 103
b 24 6 25 26 45 64 83 103
b 25 6 7 26 45 64 83 103
b 26 7 26 45 64 83 84 103
b 27 7 26 45 64 65 84 103
b 28 7 26 45 46 65 84 103
b 29 7 26 27 46 65 84 103
b 30 7 8 27 46 65 84 103
b 31 8 27 46 65 84 103 104
b 32 8 27 46 65 84 85 104
b 33 8 27 46 65 66 85 104
b 34 8 27 46 47 66 85 104
b 35 8 27 28 47 66 85 104
b 36 8 9 28 47 66 85 104
b 37 9 28 47 66 85 104 105
b 38 9 28 47 66 85 86 105
b 39 9 28 47 66 67 86 105
b 40 9 28 47 48 67 86 105
b 41 9 28 29 48 67 86 105
b 42 9 10 29 48 67 86 105
b 43 10 29 48 67 86 105 106
b 44 10 29 48 67 86 87 106
b 45 10 29 48 67 68 87 106
b 46 10 29 48 49 68 87 106
b 47 10 29 30 49 68 87 106
b 48 10 11 30 49 68 87 106
b 49 11 30 49 68 87 106 107
b 50 11 30 49 68 87 88 107
b 51 11 30 49 68 69 88 107
b 52 11 30 49 50 69 88 107
b 53 11 30 31 50 69 88 107
b 54 11 12 31 50 69 88 107
b 55 12 31 50 69 88 107 108
b 56 12 31 50 69 88 89 108
b 57 12 31 50 69 70 89 108
b 58 12 31 50 51 70 89 108
b 59 12 31 32 51 70 89 108
b 60 12 13 32 51 70 89 108
b 61 13 32 51 70 89 108 109
b 62 13 32 51 70 89 90 109
b 63 13 32 51 70 71 90 109
b 64 13 32 51 52 71 90 109
b 65 13 32 33 52 71 90 109
b 66 13 33 52 71 90 109 110
b 67 13 33 52 71 90 91 110
b 68 13 33 52 71 72 91 110
b 69 13 33 52 53 72 91 110
b 70 13 33 34 53 72 91 110
b 71 13 15 34 53 72 91 110
b 72 15 34 53 72 91 110 111
b 73 15 34 53 72 91 92 111
b 74 15 34 53 72 73 92 111
b 75 15 34 53 73 92 111 112
b 76 15 34 53 73 92 93 112
b 77 15 34 53 73 74 93 112
b 78 15 34 53 55 74 93 112
b 79 15 34 36 55 74 93 112
b 80 15 17 36 55 74 93 112
b 81 17 36 55 74 93 112 114
b 82 17 36 55 74 93 95 114
b 83 17 36 55 74 76 95 114
b 84 17 36 55 57 76 95 114
b 85 17 36 38 57 76 95 114
b 86 17 38 57 76 95 114 116
b 87 17 38 57 76 95 97 116
b 88 17 38 57 76 78 97 116
b 89 17 38 57 59 78 97 116
b 90 17 38 59 78 80 97 116
b 91 34 53 54 55 74
b 92 93 112 113 114
b 93 13 14 15 34
b 94 15 16 17 36
b 95 15 34 35 36 55
b 96 55 74 75 76 95
b 97 76 95 96 97 116
b 98 57 76 77 78 97
b 99 38 57 58 59 78
b 100 17 36 37 38 57
b 101 17 38 59 60 80
b 102 17 18 38 59 60
b 103 18 38 39 59 60
b 104 59 78 80 97 116 118
b 105 97 116 117 118
b 106 59 78 80 97 98 118
b 107 59 78 79 80 98 118
b 108 79 80 98 99 118
b 109 36 55 56 57 76
b 110 95 114 115 116
b 111 74 93 94 95 114
b 112 100 119 120
b 113 81 101 102
b 114 19 20 40
1 2
2 4
3 114
3 5
4 15
5 103
6 113
6 8
7 112
7 9
8 20
9 108
10 11
11 16
11 12
12 13
13 14
14 15
16 17
17 18
18 19
19 20
20 21
21 22
22 23
23 24
24 25
25 26
26 27
27 28
28 29
29 30
30 31
31 32
32 33
33 34
34 35
35 36
36 37
37 38
38 39
39 40
40 41
41 42
42 43
43 44
44 45
45 46
46 47
47 48
48 49
49 50
50 51
51 52
52 53
53 54
54 55
55 56
56 57
57 58
58 59
59 60
60 61
61 62
62 63
63 64
64 65
65 66
66 67
67 68
68 69
69 70
70 71
71 93
71 72
72 73
73 74
74 75
75 76
76 77
77 78
78 91
78 79
79 95
79 80
80 94
80 81
81 92
81 82
82 111
82 83
83 96
83 84
84 109
84 85
85 100
85 86
86 110
86 87
87 97
87 88
88 98
88 89
89 99
89 90
90 101
90 104
101 102
102 103
104 105
104 106
106 107
107 108
